32      4       
10      10      10      10      
0       0       0       0       0       16      2       3       4       5       6       7       9       11      12      13      14      18      19      20      21      22      
2       1       1       2       0       6       10      15      25      26      29      30      
3       6       6       4       0       3       8       16      26      
5       2       4       3       0       6       16      23      24      26      28      30      
8       0       4       4       1       3       8       25      28      
1       4       0       4       4       5       15      23      26      27      28      
5       5       3       2       0       4       15      25      27      28      
10      3       5       4       0       4       23      24      27      29      
8       5       4       6       0       3       17      25      26      
1       8       5       6       0       3       23      27      28      
2       5       0       3       3       2       23      31      
6       6       4       0       3       2       26      29      
6       2       0       10      6       2       23      25      
7       5       5       0       5       1       17      
3       0       4       3       3       1       24      
8       0       3       4       3       1       25      
3       2       0       3       4       1       23      
3       5       2       0       3       1       26      
9       5       0       4       5       1       24      
6       5       0       3       5       1       24      
9       4       0       8       1       1       23      
3       5       0       4       6       1       23      
5       5       5       4       0       1       32      
1       2       0       4       1       1       32      
5       2       0       2       2       1       32      
10      3       4       5       0       1       32      
8       0       4       2       7       1       32      
6       5       0       3       10      1       32      
5       1       4       4       0       1       32      
1       6       5       5       0       1       32      
3       2       0       2       4       1       32      
0       0       0       0       0       0       
